32      4       
13      16      17      12      
0       0       0       0       0       2       2       3       
8       13      0       5       0       3       4       5       6       
3       0       16      0       12      3       5       6       7       
9       13      0       17      0       3       7       9       13      
6       4       14      0       0       7       9       11      12      13      15      19      23      
3       8       16      0       0       5       8       14      19      20      24      
1       13      0       0       6       11      10      11      12      14      15      18      19      21      22      23      24      
4       12      0       0       10      10      10      11      12      13      15      16      17      21      22      23      
7       0       6       6       0       8       10      14      16      17      18      20      21      24      
6       0       13      10      0       5       25      26      27      28      31      
5       0       16      17      0       5       25      26      27      28      31      
10      0       16      1       0       5       25      26      27      28      31      
9       0       16      17      0       5       25      26      27      28      31      
1       0       10      0       7       4       26      27      28      31      
10      0       16      0       12      4       25      26      27      28      
3       7       6       0       0       4       25      26      28      31      
4       13      0       10      0       4       25      26      27      28      
3       0       8       17      0       4       25      26      28      31      
6       8       0       0       12      4       26      27      30      31      
8       0       11      14      0       4       26      27      30      31      
8       0       0       16      7       3       25      26      27      
6       5       0       0       9       3       25      26      27      
2       0       6       0       10      2       26      28      
9       0       0       17      6       2       25      27      
4       13      0       0       6       2       29      30      
5       13      0       0       12      1       29      
4       7       0       15      0       1       29      
1       4       0       0       12      1       30      
10      0       0       17      8       1       32      
1       13      0       12      0       1       32      
10      0       10      0       6       1       32      
0       0       0       0       0       0       
